mode: 3, sl: 0, sr: 0, revisit: 1, loop: 1
Jetsuite speed factor: 9.31
Solving mode: 3-indexed base
Solving mode: 3-indexed base
Instance name: /home/orlab/rv-fstsp2/rv-fstsp-jetsuite/Niels_instances/output_with_jetsuite//uniform-alpha_3-60-n10-maxradius-150.txt
---------------------------------------------------------------
Current config:
- Number of threads = -1
- Drone endurance = 9999
- SL = 0
- SR = 0
- Allow loop = 1
- Allow revisit = 1
- Allow multi-visit drone = 0
- Use TSP optimal solution as warmstart: = 0
- Use cutting plane method: = 0
- Use CPLEX conflict refiner: = 0
- Debug info: = 0
- Jetsuit enabled: = 0
---------------------------------------------------------------
Version identifier: 22.1.1.0 | 2022-11-28 | 9160aff4d
Tried aggregator 2 times.
MIP Presolve eliminated 1114 rows and 2171 columns.
MIP Presolve modified 1415 coefficients.
Aggregator did 9 substitutions.
Reduced MIP has 1249 rows, 3780 columns, and 30893 nonzeros.
Reduced MIP has 3760 binaries, 0 generals, 0 SOSs, and 0 indicators.
Presolve time = 0.02 sec. (44.34 ticks)
Found incumbent of value 90772.376567 after 0.03 sec. (67.94 ticks)
Probing fixed 54 vars, tightened 18 bounds.
Probing changed sense of 5 constraints.
Probing time = 0.08 sec. (186.10 ticks)
Cover probing fixed 0 vars, tightened 22 bounds.
Tried aggregator 2 times.
Detecting symmetries...
MIP Presolve eliminated 53 rows and 121 columns.
MIP Presolve modified 2544 coefficients.
Aggregator did 12 substitutions.
Reduced MIP has 1181 rows, 3647 columns, and 30191 nonzeros.
Reduced MIP has 3634 binaries, 0 generals, 0 SOSs, and 0 indicators.
Presolve time = 0.02 sec. (50.34 ticks)
Probing time = 0.00 sec. (7.82 ticks)
Cover probing fixed 0 vars, tightened 3 bounds.
Clique table members: 14637.
MIP emphasis: balance optimality and feasibility.
MIP search method: dynamic search.
Parallel mode: deterministic, using up to 20 threads.
Root relaxation solution time = 0.09 sec. (198.32 ticks)

        Nodes                                         Cuts/
   Node  Left     Objective  IInf  Best Integer    Best Bound    ItCnt     Gap

*     0+    0                        90772.3766       37.3416            99.96%
      0     0       74.8280   115    90772.3766       74.8280       34   99.92%
*     0+    0                          159.7588       74.8280            53.16%
      0     0       81.8296   181      159.7588      Cuts: 16     2957   48.78%
      0     0       85.4084   161      159.7588      Cuts: 38     3691   46.54%
      0     0       85.4084   164      159.7588      Cuts: 25     3910   46.54%
      0     0       85.4084   126      159.7588       Cuts: 4     4068   46.54%
      0     0       85.4573   145      159.7588      Cuts: 17     4148   46.51%
Detecting symmetries...
      0     0       85.4573   184      159.7588      Cuts: 28     4332   46.51%
Detecting symmetries...
      0     2       85.4573   111      159.7588       85.4573     4332   46.51%
Elapsed time = 1.05 sec. (1553.49 ticks, tree = 0.02 MB, solutions = 2)
*    16+    5                          155.3388       85.4573            44.99%
    188     9    infeasible            155.3388       85.4573    21535   44.99%
    287    10      115.0477   108      155.3388       85.4573    37110   44.99%
    940    49      128.6063    77      155.3388       85.4573    62557   44.99%
   1329    10      134.2148   116      155.3388       85.7149    85711   44.82%
   1654    56    infeasible            155.3388       98.0087   106707   36.91%
   2305     4       98.1787   142      155.3388       98.1527   134571   36.81%
   2419    18      121.4175   116      155.3388      101.8835   141887   34.41%
   2842    14      120.5696    95      155.3388      104.1397   167635   32.96%
   2989    13      115.4711   108      155.3388      104.3187   162150   32.84%
   3441     8      135.0176   120      155.3388      135.0152   254613   13.08%
Elapsed time = 4.09 sec. (4949.70 ticks, tree = 0.05 MB, solutions = 13)
   3458     8      143.2758   118      155.3388      140.7348   263278    9.40%

Clique cuts applied:  1
Cover cuts applied:  10
Implied bound cuts applied:  87
Flow cuts applied:  1
Mixed integer rounding cuts applied:  19
Zero-half cuts applied:  3
Gomory fractional cuts applied:  2

Root node processing (before b&c):
  Real time             =    1.02 sec. (1521.55 ticks)
Parallel b&c, 20 threads:
  Real time             =    3.84 sec. (4665.01 ticks)
  Sync time (average)   =    2.89 sec.
  Wait time (average)   =    0.00 sec.
                          ------------
Total (root+branch&cut) =    4.86 sec. (6186.56 ticks)
Solve time: 4.87
Objective Value: 155.339

Truck Schedule: 
Stage 1: Truck arrived node 0 at 0
	Truck departed from node 0 to node 6 at 0
Stage 2: Truck arrived node 6 at 54.6777
	Truck departed from node 6 to node 6 at 54.6777
Stage 3: Truck arrived node 6 at 54.6777
	Truck departed from node 6 to node 6 at 67.9081
Stage 4: Truck arrived node 6 at 67.9081
	Truck departed from node 6 to node 6 at 86.3472
Stage 5: Truck arrived node 6 at 86.3472
	Truck departed from node 6 to node 10 at 100.661
Stage 6: Truck arrived node 10 at 155.339

Truck arc:
Stage 1: 0 -> 6
Stage 2: 6 -> 6
Stage 3: 6 -> 6
Stage 4: 6 -> 6
Stage 5: 6 -> 10

Drone Schedule: 
Stage 1 to 2: Drone departed from node 0 visited customer 3 and arrived to node 6
	 Departed at: 0
	 Visited at: 32.6965
	 Arrived at: 53.7387
Added drone operation: position 0 (node 0) -> customer 3 -> position 1 (node 6)
Stage 2 to 3: Drone departed from node 6 visited customer 1 and arrived to node 6
	 Departed at: 54.6777
	 Visited at: 61.0895
	 Arrived at: 67.5013
Added drone operation: position 1 (node 6) -> customer 1 -> position 2 (node 6)
Stage 3 to 4: Drone departed from node 6 visited customer 4 and arrived to node 6
	 Departed at: 67.9081
	 Visited at: 77.1276
	 Arrived at: 86.3472
Added drone operation: position 2 (node 6) -> customer 4 -> position 3 (node 6)
Stage 4 to 5: Drone departed from node 6 visited customer 2 and arrived to node 6
	 Departed at: 86.3472
	 Visited at: 93.5041
	 Arrived at: 100.661
Added drone operation: position 3 (node 6) -> customer 2 -> position 4 (node 6)
Stage 5 to 6: Drone departed from node 6 visited customer 8 and arrived to node 10
	 Departed at: 100.661
	 Visited at: 116.285
	 Arrived at: 143.206
Added drone operation: position 4 (node 6) -> customer 8 -> position 5 (node 10)

Jetsuite Schedule: 
Stage 2: Jetsuite launched from node 6 served customer 7 and recovered at node 6
Stage 3: Jetsuite launched from node 6 served customer 5 and recovered at node 6
Stage 4: Jetsuite launched from node 6 served customer 9 and recovered at node 6
x[0][6][1] = 1
x[6][6][2] = 1
x[6][6][3] = 1
x[6][6][4] = 1
x[6][10][5] = 1

Drone Variables (V[i][h][k]):
Y[0][3][1] = 1
Y[6][1][2] = 1
Y[6][2][4] = 1
Y[6][4][3] = 1
Y[6][8][5] = 1

Jetsuite Variables (U[i][h][k]):
U[6][5][3] = 1
U[6][7][2] = 1
U[6][9][4] = 1

Checking the feasibility of the solution...
Time schedule is not given, recalculating...
Current objective: 155.339
Recalculated objective: 154.932
